2023/11/29
gurobi is now 11.0.0
previous version was 10.0.3
solving instance knapsack 500 8 square
Couenne 0.5.8 -- an Open-Source solver for Mixed Integer Nonlinear Optimization
Mailing list: couenne@list.coin-or.org
Instructions: http://www.coin-or.org/Couenne
couenne: 
ANALYSIS TEST: Reformulating problem: Couenne: new cutoff value -1.5614910410e+01 (0.304368 seconds)
0.3 seconds
NLP0012I 
              Num      Status      Obj             It       time                 Location
NLP0014I             1      FAILED -5133.0046     3000 82.453331
NLP0014I             1      FAILED -5133.0046     3000 83.287008   resolve robustness
NLP3006W Warning : continuing branching, while there are unrecovered failures at nodes
Loaded instance "/tmp/jl_lv8Sc6/model.nl"
Constraints:         1501
Variables:           1500 (500 integer)
Auxiliaries:          502 (0 integer)

Coin0506I Presolve 3001 (-501) rows, 1500 (-502) columns and 6999 (-1002) elements
Clp0006I 0  Obj -18518.946 Primal inf 331729.41 (500)
Clp0006I 135  Obj -18518.946 Primal inf 311210.32 (500)
Clp0006I 270  Obj -18518.946 Primal inf 283224.34 (472)
Clp0006I 405  Obj -18518.946 Primal inf 215883.75 (398)
Clp0006I 540  Obj -18518.946 Primal inf 151536.04 (324)
Clp0006I 675  Obj -17589.92 Primal inf 105381.12 (251)
Clp0006I 810  Obj -16874.157 Primal inf 72232.101 (184)
Clp0006I 945  Obj -16174.507 Primal inf 24884.696 (96)
Clp0006I 1080  Obj -15969.229 Primal inf 5194.9563 (26)
Clp0006I 1126  Obj -15956.54
Clp0000I Optimal - objective value -15956.54
Clp0032I Optimal objective -15956.54033 - 1126 iterations time 0.052, Presolve 0.01
Clp0000I Optimal - objective value -15956.54
NLP Heuristic: NLP0014I             3         OPT -15946.114       54 1.226413
no solution.
Clp0000I Optimal - objective value -15956.54
Optimality Based BT: 0 improved bounds
Probing: Couenne: new cutoff value -1.5946113984e+04 (174.058 seconds)
0 improved bounds
NLP Heuristic: no solution.
Cbc0013I At root node, 0 cuts changed objective from -15956.54 to -15956.54 in 1 passes
Cbc0014I Cut generator 0 (Couenne convexifier cuts) - 0 row cuts average 0.0 elements, 204 column cuts (204 active)
Cbc0010I After 0 nodes, 1 on tree, 1e+50 best solution, best possible -1.7976931e+308 (13.21 seconds)
Optimality Based BT: 208 improved bounds
Optimality Based BT: 76 improved bounds
Optimality Based BT: 209 improved bounds
Optimality Based BT: 203 improved bounds
Couenne: new cutoff value -1.5950059210e+04 (229.009 seconds)
Optimality Based BT: 236 improved bounds
Couenne: new cutoff value -1.5955801341e+04 (258.954 seconds)
Couenne: new cutoff value -1.5955815763e+04 (263.099 seconds)
Optimality Based BT: 95 improved bounds
Optimality Based BT: 89 improved bounds
Couenne: new cutoff value -1.5955823357e+04 (401.524 seconds)
Optimality Based BT: 225 improved bounds
Cbc0010I After 100 nodes, 5 on tree, 1e+50 best solution, best possible -15955.92 (515.14 seconds)
Cbc0010I After 200 nodes, 13 on tree, 1e+50 best solution, best possible -15955.92 (519.05 seconds)
Cbc0010I After 300 nodes, 24 on tree, 1e+50 best solution, best possible -15955.92 (523.26 seconds)
Cbc0010I After 400 nodes, 46 on tree, 1e+50 best solution, best possible -15955.92 (527.55 seconds)
Cbc0010I After 500 nodes, 83 on tree, 1e+50 best solution, best possible -15955.92 (532.39 seconds)
Cbc0010I After 600 nodes, 127 on tree, 1e+50 best solution, best possible -15955.92 (537.60 seconds)
Cbc0010I After 700 nodes, 177 on tree, 1e+50 best solution, best possible -15955.92 (542.97 seconds)
Cbc0010I After 800 nodes, 227 on tree, 1e+50 best solution, best possible -15955.92 (548.60 seconds)
Cbc0010I After 900 nodes, 277 on tree, 1e+50 best solution, best possible -15955.92 (554.58 seconds)
Cbc0010I After 1000 nodes, 327 on tree, 1e+50 best solution, best possible -15955.92 (560.64 seconds)
Cbc0010I After 1100 nodes, 377 on tree, 1e+50 best solution, best possible -15955.92 (566.95 seconds)
Cbc0010I After 1200 nodes, 427 on tree, 1e+50 best solution, best possible -15955.92 (573.38 seconds)
Cbc0010I After 1300 nodes, 477 on tree, 1e+50 best solution, best possible -15955.92 (579.88 seconds)
Cbc0010I After 1400 nodes, 527 on tree, 1e+50 best solution, best possible -15955.92 (586.50 seconds)
Cbc0010I After 1500 nodes, 577 on tree, 1e+50 best solution, best possible -15955.92 (593.45 seconds)
Couenne: new cutoff value -1.5955834068e+04 (763.782 seconds)
Cbc0010I After 1600 nodes, 609 on tree, 1e+50 best solution, best possible -15955.92 (600.04 seconds)
Cbc0010I After 1700 nodes, 616 on tree, 1e+50 best solution, best possible -15955.839 (605.32 seconds)
Couenne: new cutoff value -1.5955838764e+04 (771.899 seconds)
Cbc0010I After 1800 nodes, 577 on tree, 1e+50 best solution, best possible -15955.834 (608.42 seconds)
Cbc0010I After 1900 nodes, 527 on tree, 1e+50 best solution, best possible -15955.834 (610.93 seconds)
Cbc0010I After 2000 nodes, 477 on tree, 1e+50 best solution, best possible -15955.834 (613.37 seconds)
Cbc0010I After 2100 nodes, 427 on tree, 1e+50 best solution, best possible -15955.834 (615.85 seconds)
Cbc0010I After 2200 nodes, 377 on tree, 1e+50 best solution, best possible -15955.834 (618.68 seconds)
Cbc0010I After 2300 nodes, 327 on tree, 1e+50 best solution, best possible -15955.834 (621.01 seconds)
Cbc0010I After 2400 nodes, 277 on tree, 1e+50 best solution, best possible -15955.833 (623.10 seconds)
Cbc0010I After 2500 nodes, 227 on tree, 1e+50 best solution, best possible -15955.832 (625.18 seconds)
Cbc0010I After 2600 nodes, 177 on tree, 1e+50 best solution, best possible -15955.83 (627.00 seconds)
Cbc0010I After 2700 nodes, 127 on tree, 1e+50 best solution, best possible -15955.828 (628.69 seconds)
Cbc0010I After 2800 nodes, 77 on tree, 1e+50 best solution, best possible -15955.827 (631.32 seconds)
Cbc0010I After 2900 nodes, 27 on tree, 1e+50 best solution, best possible -15955.825 (633.11 seconds)
Cbc0001I Search completed - best objective 1e+50, took 151345 iterations and 2954 nodes (634.45 seconds)
Cbc0035I Maximum depth 816, 0 variables fixed on reduced cost

 	"Finished"

Linearization cuts added at root node:       3502
Linearization cuts added in total:           3502  (separation time: 0.007235s)
Total solve time:                         634.497s (634.497s in branch-and-bound)
Lower bound:                             -15955.8
Upper bound:                             -15955.8  (gap: 0.00%)
Branch-and-bound nodes:                      2954
Stats: /tmp/jl_lv8Sc6/model.nl 1500 [var]  500 [int] 1501 [con]  502 [aux]   3502 [root]     3502 [tot] 0.007235 [sep]  634.497 [time]    634.5 [bb]        -1.595584e+04 [lower]        -1.595584e+04 [upper]    2954 [nodes]
Performance of                           FBBT:	    2.05739s,     2543 runs. fix:          0 shrnk:    122.145 ubd:          0 2ubd:          1 infeas:          0
Performance of                           OBBT:	     63.438s,        9 runs. fix:    23.3736 shrnk:    349.224 ubd:          0 2ubd:          1 infeas:          0
primal_bound = -15955.838764157674, dual_bound = 0.0, gap = 100.0, time = 810.0
